MATILDA_Graphs/g0092.col
c File: data_files/evolved_graphs/g0092.col
c
c Auto generated graph
c
p edge 100 1777
e 1 3
e 1 8
e 1 9
e 1 10
e 1 12
e 1 16
e 1 18
e 1 19
e 1 23
e 1 24
e 1 25
e 1 26
e 1 27
e 1 32
e 1 34
e 1 35
e 1 39
e 1 42
e 1 44
e 1 51
e 1 53
e 1 56
e 1 59
e 1 60
e 1 62
e 1 64
e 1 68
e 1 69
e 1 70
e 1 72
e 1 73
e 1 75
e 1 76
e 1 81
e 1 82
e 1 83
e 1 84
e 1 86
e 1 87
e 1 88
e 1 89
e 1 92
e 1 94
e 1 95
e 1 96
e 1 99
e 2 5
e 2 13
e 2 17
e 2 18
e 2 20
e 2 21
e 2 31
e 2 32
e 2 34
e 2 38
e 2 39
e 2 46
e 2 47
e 2 50
e 2 61
e 2 63
e 2 64
e 2 65
e 2 66
e 2 71
e 2 72
e 2 81
e 2 85
e 2 87
e 2 89
e 2 90
e 2 96
e 2 100
e 3 10
e 3 11
e 3 15
e 3 16
e 3 19
e 3 21
e 3 23
e 3 28
e 3 29
e 3 34
e 3 35
e 3 38
e 3 42
e 3 44
e 3 45
e 3 48
e 3 51
e 3 52
e 3 56
e 3 58
e 3 59
e 3 60
e 3 62
e 3 68
e 3 78
e 3 81
e 3 82
e 3 83
e 3 85
e 3 86
e 3 87
e 3 92
e 3 93
e 3 97
e 3 98
e 3 99
e 3 100
e 4 5
e 4 13
e 4 15
e 4 16
e 4 17
e 4 21
e 4 26
e 4 27
e 4 32
e 4 39
e 4 40
e 4 43
e 4 44
e 4 45
e 4 46
e 4 48
e 4 51
e 4 55
e 4 59
e 4 60
e 4 61
e 4 63
e 4 64
e 4 65
e 4 76
e 4 78
e 4 79
e 4 82
e 4 86
e 4 87
e 4 89
e 4 90
e 4 94
e 4 96
e 4 97
e 4 98
e 4 99
e 5 9
e 5 10
e 5 13
e 5 14
e 5 17
e 5 21
e 5 23
e 5 24
e 5 25
e 5 26
e 5 27
e 5 31
e 5 33
e 5 40
e 5 43
e 5 48
e 5 51
e 5 58
e 5 60
e 5 64
e 5 67
e 5 70
e 5 71
e 5 75
e 5 76
e 5 78
e 5 79
e 5 80
e 5 81
e 5 86
e 5 88
e 5 90
e 5 91
e 5 92
e 5 93
e 5 94
e 5 95
e 5 98
e 6 8
e 6 12
e 6 13
e 6 17
e 6 21
e 6 24
e 6 28
e 6 30
e 6 37
e 6 38
e 6 41
e 6 46
e 6 48
e 6 50
e 6 53
e 6 55
e 6 56
e 6 60
e 6 61
e 6 62
e 6 66
e 6 68
e 6 69
e 6 70
e 6 71
e 6 73
e 6 75
e 6 80
e 6 84
e 6 89
e 6 92
e 6 94
e 6 97
e 6 98
e 6 99
e 7 9
e 7 10
e 7 11
e 7 12
e 7 19
e 7 20
e 7 22
e 7 24
e 7 30
e 7 35
e 7 43
e 7 44
e 7 48
e 7 51
e 7 53
e 7 55
e 7 56
e 7 66
e 7 68
e 7 69
e 7 71
e 7 74
e 7 76
e 7 78
e 7 80
e 7 83
e 7 84
e 7 89
e 7 91
e 7 93
e 7 94
e 7 95
e 7 99
e 7 100
e 8 9
e 8 13
e 8 14
e 8 18
e 8 19
e 8 22
e 8 27
e 8 28
e 8 29
e 8 32
e 8 33
e 8 34
e 8 37
e 8 39
e 8 42
e 8 44
e 8 45
e 8 48
e 8 50
e 8 58
e 8 61
e 8 65
e 8 68
e 8 69
e 8 71
e 8 74
e 8 78
e 8 82
e 8 89
e 8 93
e 8 94
e 8 96
e 8 99
e 9 10
e 9 17
e 9 26
e 9 30
e 9 31
e 9 32
e 9 34
e 9 36
e 9 41
e 9 42
e 9 46
e 9 49
e 9 54
e 9 57
e 9 58
e 9 59
e 9 60
e 9 64
e 9 68
e 9 69
e 9 73
e 9 77
e 9 79
e 9 80
e 9 81
e 9 83
e 9 84
e 9 90
e 9 91
e 9 92
e 9 94
e 9 95
e 9 96
e 9 98
e 9 99
e 9 100
e 10 12
e 10 13
e 10 14
e 10 15
e 10 16
e 10 17
e 10 20
e 10 23
e 10 24
e 10 29
e 10 30
e 10 35
e 10 37
e 10 38
e 10 40
e 10 43
e 10 45
e 10 46
e 10 47
e 10 55
e 10 57
e 10 58
e 10 64
e 10 66
e 10 72
e 10 75
e 10 77
e 10 81
e 10 84
e 10 92
e 10 100
e 11 15
e 11 17
e 11 19
e 11 21
e 11 28
e 11 29
e 11 39
e 11 41
e 11 43
e 11 49
e 11 51
e 11 56
e 11 57
e 11 58
e 11 65
e 11 75
e 11 79
e 11 84
e 11 91
e 11 92
e 11 93
e 11 95
e 12 14
e 12 19
e 12 21
e 12 22
e 12 23
e 12 24
e 12 25
e 12 31
e 12 39
e 12 40
e 12 42
e 12 43
e 12 47
e 12 49
e 12 50
e 12 52
e 12 55
e 12 63
e 12 64
e 12 65
e 12 66
e 12 68
e 12 72
e 12 76
e 12 77
e 12 78
e 12 83
e 12 87
e 12 90
e 12 94
e 12 99
e 12 100
e 13 16
e 13 17
e 13 21
e 13 23
e 13 28
e 13 30
e 13 32
e 13 33
e 13 34
e 13 37
e 13 38
e 13 39
e 13 40
e 13 43
e 13 45
e 13 47
e 13 48
e 13 53
e 13 57
e 13 61
e 13 62
e 13 64
e 13 69
e 13 70
e 13 71
e 13 74
e 13 75
e 13 78
e 13 79
e 13 80
e 13 86
e 13 87
e 13 90
e 13 98
e 13 99
e 13 100
e 14 19
e 14 21
e 14 23
e 14 24
e 14 25
e 14 26
e 14 32
e 14 40
e 14 43
e 14 50
e 14 55
e 14 57
e 14 60
e 14 62
e 14 69
e 14 72
e 14 74
e 14 79
e 14 80
e 14 81
e 14 87
e 14 90
e 14 92
e 14 97
e 14 98
e 15 21
e 15 23
e 15 24
e 15 27
e 15 29
e 15 33
e 15 35
e 15 39
e 15 40
e 15 41
e 15 42
e 15 44
e 15 47
e 15 48
e 15 49
e 15 50
e 15 52
e 15 55
e 15 59
e 15 60
e 15 61
e 15 63
e 15 66
e 15 67
e 15 68
e 15 69
e 15 70
e 15 71
e 15 74
e 15 75
e 15 76
e 15 78
e 15 80
e 15 86
e 15 87
e 15 91
e 15 92
e 15 99
e 15 100
e 16 18
e 16 20
e 16 21
e 16 23
e 16 24
e 16 29
e 16 32
e 16 38
e 16 40
e 16 41
e 16 42
e 16 46
e 16 47
e 16 49
e 16 51
e 16 52
e 16 53
e 16 57
e 16 58
e 16 61
e 16 65
e 16 68
e 16 76
e 16 78
e 16 83
e 16 94
e 16 95
e 16 97
e 16 100
e 17 19
e 17 22
e 17 23
e 17 24
e 17 25
e 17 26
e 17 27
e 17 28
e 17 29
e 17 30
e 17 31
e 17 33
e 17 42
e 17 43
e 17 45
e 17 47
e 17 50
e 17 51
e 17 52
e 17 53
e 17 55
e 17 56
e 17 59
e 17 60
e 17 61
e 17 62
e 17 63
e 17 64
e 17 66
e 17 69
e 17 71
e 17 73
e 17 75
e 17 80
e 17 85
e 17 86
e 17 87
e 17 88
e 17 91
e 17 94
e 17 97
e 18 19
e 18 20
e 18 21
e 18 22
e 18 30
e 18 31
e 18 35
e 18 38
e 18 39
e 18 42
e 18 45
e 18 49
e 18 51
e 18 52
e 18 53
e 18 57
e 18 58
e 18 59
e 18 61
e 18 62
e 18 63
e 18 72
e 18 73
e 18 76
e 18 77
e 18 79
e 18 80
e 18 82
e 18 85
e 18 86
e 18 92
e 18 94
e 18 100
e 19 20
e 19 24
e 19 31
e 19 32
e 19 37
e 19 38
e 19 39
e 19 41
e 19 42
e 19 48
e 19 51
e 19 59
e 19 63
e 19 65
e 19 66
e 19 68
e 19 71
e 19 74
e 19 75
e 19 76
e 19 77
e 19 78
e 19 79
e 19 80
e 19 82
e 19 85
e 19 86
e 19 87
e 19 88
e 19 90
e 19 91
e 19 97
e 19 98
e 19 99
e 20 21
e 20 22
e 20 23
e 20 28
e 20 30
e 20 31
e 20 32
e 20 33
e 20 35
e 20 36
e 20 37
e 20 40
e 20 41
e 20 43
e 20 45
e 20 46
e 20 58
e 20 59
e 20 60
e 20 62
e 20 65
e 20 66
e 20 67
e 20 68
e 20 70
e 20 76
e 20 81
e 20 82
e 20 84
e 20 85
e 20 89
e 20 94
e 20 97
e 20 99
e 21 24
e 21 35
e 21 36
e 21 38
e 21 39
e 21 40
e 21 43
e 21 50
e 21 51
e 21 52
e 21 53
e 21 54
e 21 61
e 21 62
e 21 63
e 21 67
e 21 70
e 21 72
e 21 74
e 21 75
e 21 83
e 21 86
e 21 90
e 21 97
e 21 99
e 21 100
e 22 33
e 22 34
e 22 35
e 22 36
e 22 37
e 22 44
e 22 54
e 22 55
e 22 58
e 22 60
e 22 63
e 22 64
e 22 68
e 22 69
e 22 70
e 22 74
e 22 75
e 22 76
e 22 78
e 22 82
e 22 83
e 22 94
e 22 97
e 22 98
e 23 24
e 23 30
e 23 31
e 23 38
e 23 39
e 23 44
e 23 45
e 23 49
e 23 50
e 23 54
e 23 56
e 23 57
e 23 58
e 23 59
e 23 62
e 23 66
e 23 71
e 23 73
e 23 79
e 23 80
e 23 81
e 23 82
e 23 90
e 23 93
e 23 97
e 23 98
e 24 25
e 24 30
e 24 31
e 24 34
e 24 35
e 24 37
e 24 40
e 24 42
e 24 43
e 24 46
e 24 47
e 24 48
e 24 49
e 24 52
e 24 55
e 24 56
e 24 58
e 24 59
e 24 62
e 24 63
e 24 67
e 24 69
e 24 72
e 24 74
e 24 76
e 24 77
e 24 83
e 24 87
e 24 89
e 24 90
e 24 91
e 24 94
e 24 96
e 25 26
e 25 30
e 25 31
e 25 32
e 25 34
e 25 38
e 25 42
e 25 44
e 25 50
e 25 51
e 25 52
e 25 56
e 25 58
e 25 61
e 25 62
e 25 67
e 25 72
e 25 73
e 25 74
e 25 75
e 25 80
e 25 83
e 25 90
e 25 98
e 26 31
e 26 36
e 26 38
e 26 43
e 26 47
e 26 51
e 26 53
e 26 54
e 26 56
e 26 61
e 26 65
e 26 66
e 26 71
e 26 78
e 26 82
e 26 84
e 26 94
e 26 95
e 26 96
e 27 28
e 27 30
e 27 37
e 27 40
e 27 43
e 27 47
e 27 48
e 27 52
e 27 54
e 27 56
e 27 57
e 27 59
e 27 63
e 27 64
e 27 69
e 27 74
e 27 77
e 27 81
e 27 82
e 27 84
e 27 85
e 27 86
e 27 88
e 27 92
e 27 96
e 27 97
e 27 99
e 28 33
e 28 37
e 28 40
e 28 43
e 28 47
e 28 49
e 28 52
e 28 53
e 28 58
e 28 63
e 28 69
e 28 71
e 28 73
e 28 74
e 28 76
e 28 82
e 28 88
e 28 95
e 28 98
e 29 31
e 29 36
e 29 37
e 29 38
e 29 39
e 29 42
e 29 51
e 29 52
e 29 53
e 29 55
e 29 56
e 29 58
e 29 60
e 29 61
e 29 69
e 29 70
e 29 74
e 29 76
e 29 80
e 29 82
e 29 83
e 29 84
e 29 85
e 29 89
e 29 93
e 29 94
e 29 96
e 29 97
e 30 37
e 30 39
e 30 40
e 30 41
e 30 43
e 30 50
e 30 52
e 30 55
e 30 58
e 30 60
e 30 72
e 30 74
e 30 76
e 30 78
e 30 82
e 30 83
e 30 86
e 30 87
e 30 89
e 30 90
e 30 100
e 31 36
e 31 38
e 31 40
e 31 42
e 31 46
e 31 49
e 31 52
e 31 53
e 31 54
e 31 71
e 31 72
e 31 73
e 31 75
e 31 78
e 31 79
e 31 81
e 31 83
e 31 84
e 31 89
e 31 91
e 31 92
e 31 93
e 31 95
e 31 96
e 31 97
e 31 100
e 32 33
e 32 34
e 32 36
e 32 41
e 32 46
e 32 54
e 32 55
e 32 58
e 32 61
e 32 64
e 32 65
e 32 69
e 32 72
e 32 77
e 32 83
e 32 84
e 32 86
e 32 89
e 32 90
e 32 93
e 33 36
e 33 39
e 33 40
e 33 41
e 33 42
e 33 45
e 33 46
e 33 56
e 33 57
e 33 60
e 33 63
e 33 64
e 33 69
e 33 70
e 33 73
e 33 76
e 33 78
e 33 86
e 33 88
e 33 91
e 33 95
e 33 96
e 33 97
e 33 98
e 33 99
e 34 35
e 34 40
e 34 41
e 34 42
e 34 48
e 34 50
e 34 51
e 34 54
e 34 55
e 34 59
e 34 61
e 34 70
e 34 72
e 34 75
e 34 83
e 34 87
e 34 89
e 34 94
e 34 98
e 34 99
e 35 45
e 35 47
e 35 48
e 35 49
e 35 52
e 35 53
e 35 56
e 35 60
e 35 63
e 35 70
e 35 72
e 35 73
e 35 76
e 35 77
e 35 82
e 35 83
e 35 84
e 35 85
e 35 87
e 35 98
e 35 99
e 36 38
e 36 39
e 36 40
e 36 43
e 36 45
e 36 48
e 36 49
e 36 52
e 36 54
e 36 55
e 36 56
e 36 60
e 36 65
e 36 71
e 36 75
e 36 80
e 36 81
e 36 93
e 36 94
e 36 97
e 37 39
e 37 40
e 37 47
e 37 48
e 37 51
e 37 53
e 37 55
e 37 57
e 37 60
e 37 65
e 37 66
e 37 71
e 37 72
e 37 76
e 37 82
e 37 86
e 37 95
e 38 39
e 38 46
e 38 48
e 38 52
e 38 54
e 38 57
e 38 59
e 38 61
e 38 63
e 38 64
e 38 69
e 38 73
e 38 74
e 38 78
e 38 80
e 38 86
e 38 87
e 38 90
e 38 91
e 39 45
e 39 49
e 39 50
e 39 59
e 39 60
e 39 61
e 39 62
e 39 64
e 39 67
e 39 69
e 39 72
e 39 79
e 39 82
e 39 83
e 39 89
e 39 97
e 40 41
e 40 43
e 40 44
e 40 47
e 40 50
e 40 51
e 40 52
e 40 53
e 40 54
e 40 56
e 40 60
e 40 63
e 40 73
e 40 75
e 40 78
e 40 80
e 40 85
e 40 86
e 40 87
e 40 92
e 40 93
e 40 94
e 40 95
e 40 96
e 40 98
e 41 43
e 41 44
e 41 45
e 41 49
e 41 50
e 41 51
e 41 53
e 41 54
e 41 62
e 41 68
e 41 69
e 41 71
e 41 73
e 41 76
e 41 82
e 41 88
e 41 90
e 41 96
e 42 43
e 42 48
e 42 50
e 42 51
e 42 54
e 42 56
e 42 59
e 42 60
e 42 62
e 42 63
e 42 64
e 42 65
e 42 68
e 42 69
e 42 70
e 42 72
e 42 74
e 42 76
e 42 78
e 42 82
e 42 92
e 42 93
e 42 95
e 42 96
e 43 45
e 43 47
e 43 49
e 43 50
e 43 56
e 43 57
e 43 61
e 43 62
e 43 63
e 43 64
e 43 66
e 43 67
e 43 71
e 43 73
e 43 74
e 43 76
e 43 77
e 43 78
e 43 80
e 43 81
e 43 83
e 43 84
e 43 89
e 43 94
e 43 95
e 43 96
e 43 98
e 43 100
e 44 46
e 44 48
e 44 49
e 44 50
e 44 54
e 44 61
e 44 64
e 44 66
e 44 67
e 44 69
e 44 70
e 44 74
e 44 80
e 44 84
e 44 88
e 44 90
e 44 94
e 44 97
e 44 99
e 45 47
e 45 49
e 45 50
e 45 51
e 45 59
e 45 60
e 45 61
e 45 63
e 45 65
e 45 67
e 45 69
e 45 72
e 45 81
e 45 82
e 45 84
e 45 86
e 45 88
e 45 91
e 45 92
e 45 99
e 45 100
e 46 47
e 46 50
e 46 52
e 46 57
e 46 58
e 46 59
e 46 64
e 46 66
e 46 67
e 46 68
e 46 80
e 46 82
e 46 90
e 46 93
e 46 95
e 46 99
e 47 48
e 47 49
e 47 50
e 47 51
e 47 56
e 47 57
e 47 58
e 47 59
e 47 62
e 47 65
e 47 66
e 47 69
e 47 71
e 47 81
e 47 83
e 47 86
e 47 90
e 47 93
e 47 94
e 47 98
e 47 99
e 48 49
e 48 52
e 48 55
e 48 57
e 48 59
e 48 60
e 48 61
e 48 62
e 48 64
e 48 67
e 48 68
e 48 69
e 48 70
e 48 71
e 48 74
e 48 78
e 48 82
e 48 85
e 48 86
e 48 88
e 48 91
e 48 94
e 48 95
e 49 53
e 49 55
e 49 56
e 49 58
e 49 60
e 49 61
e 49 63
e 49 66
e 49 67
e 49 69
e 49 77
e 49 84
e 49 86
e 49 87
e 49 88
e 49 95
e 49 96
e 49 98
e 49 100
e 50 51
e 50 59
e 50 60
e 50 64
e 50 67
e 50 75
e 50 76
e 50 78
e 50 79
e 50 81
e 50 86
e 50 87
e 50 91
e 50 95
e 50 96
e 50 99
e 51 53
e 51 59
e 51 61
e 51 62
e 51 64
e 51 67
e 51 71
e 51 74
e 51 75
e 51 76
e 51 85
e 51 86
e 51 87
e 51 94
e 51 98
e 52 53
e 52 60
e 52 62
e 52 64
e 52 70
e 52 73
e 52 75
e 52 79
e 52 90
e 52 92
e 52 94
e 52 95
e 52 98
e 53 54
e 53 55
e 53 57
e 53 59
e 53 60
e 53 61
e 53 62
e 53 64
e 53 65
e 53 67
e 53 71
e 53 72
e 53 74
e 53 77
e 53 81
e 53 85
e 53 87
e 53 88
e 53 89
e 53 91
e 53 92
e 53 97
e 54 57
e 54 59
e 54 63
e 54 69
e 54 75
e 54 76
e 54 77
e 54 79
e 54 82
e 54 86
e 54 94
e 54 97
e 54 98
e 55 57
e 55 60
e 55 63
e 55 64
e 55 67
e 55 68
e 55 69
e 55 70
e 55 77
e 55 86
e 55 94
e 55 97
e 55 98
e 55 99
e 56 58
e 56 59
e 56 60
e 56 64
e 56 70
e 56 73
e 56 81
e 56 84
e 56 89
e 56 92
e 56 93
e 56 95
e 56 98
e 56 99
e 57 58
e 57 61
e 57 65
e 57 67
e 57 68
e 57 72
e 57 73
e 57 74
e 57 75
e 57 76
e 57 77
e 57 83
e 57 86
e 57 92
e 57 93
e 57 94
e 57 97
e 57 98
e 57 100
e 58 61
e 58 62
e 58 66
e 58 67
e 58 69
e 58 70
e 58 72
e 58 74
e 58 76
e 58 77
e 58 78
e 58 80
e 58 82
e 58 86
e 58 87
e 58 90
e 58 91
e 59 60
e 59 62
e 59 64
e 59 66
e 59 67
e 59 68
e 59 70
e 59 72
e 59 74
e 59 77
e 59 78
e 59 85
e 59 87
e 59 91
e 59 94
e 60 63
e 60 64
e 60 66
e 60 69
e 60 72
e 60 73
e 60 82
e 60 84
e 60 86
e 60 87
e 60 88
e 60 94
e 60 96
e 60 99
e 60 100
e 61 63
e 61 64
e 61 66
e 61 68
e 61 69
e 61 75
e 61 77
e 61 79
e 61 80
e 61 81
e 61 86
e 61 88
e 61 90
e 61 98
e 62 64
e 62 66
e 62 69
e 62 70
e 62 71
e 62 80
e 62 82
e 62 84
e 62 87
e 62 90
e 62 91
e 62 94
e 62 95
e 62 97
e 62 98
e 62 100
e 63 70
e 63 71
e 63 75
e 63 78
e 63 80
e 63 81
e 63 83
e 63 84
e 63 86
e 63 89
e 63 95
e 64 68
e 64 72
e 64 75
e 64 78
e 64 82
e 64 83
e 64 84
e 64 88
e 64 91
e 64 94
e 64 98
e 64 99
e 65 67
e 65 68
e 65 69
e 65 70
e 65 71
e 65 73
e 65 74
e 65 76
e 65 77
e 65 78
e 65 82
e 65 83
e 65 86
e 65 88
e 65 89
e 65 90
e 65 91
e 65 92
e 65 93
e 65 94
e 65 98
e 66 68
e 66 76
e 66 78
e 66 82
e 66 85
e 66 86
e 66 89
e 66 93
e 66 100
e 67 71
e 67 75
e 67 78
e 67 79
e 67 83
e 67 85
e 67 88
e 67 89
e 67 90
e 67 92
e 67 93
e 67 94
e 67 96
e 67 98
e 68 71
e 68 73
e 68 75
e 68 77
e 68 79
e 68 82
e 68 83
e 68 84
e 68 85
e 68 88
e 68 90
e 68 92
e 68 96
e 68 99
e 69 73
e 69 80
e 69 85
e 69 88
e 69 90
e 69 92
e 69 93
e 69 94
e 69 95
e 69 97
e 69 100
e 70 71
e 70 76
e 70 78
e 70 80
e 70 85
e 70 87
e 70 88
e 70 94
e 70 98
e 70 99
e 71 72
e 71 73
e 71 76
e 71 81
e 71 83
e 71 85
e 71 87
e 71 89
e 71 90
e 71 99
e 71 100
e 72 75
e 72 79
e 72 81
e 72 82
e 72 84
e 72 93
e 72 94
e 72 96
e 72 98
e 73 75
e 73 77
e 73 80
e 73 82
e 73 85
e 73 88
e 73 90
e 73 93
e 73 94
e 73 100
e 74 75
e 74 79
e 74 80
e 74 82
e 74 85
e 74 88
e 74 90
e 74 91
e 74 92
e 74 97
e 75 82
e 75 87
e 75 89
e 75 91
e 75 95
e 75 96
e 75 98
e 75 100
e 76 80
e 76 81
e 76 83
e 76 85
e 76 90
e 76 94
e 76 97
e 76 100
e 77 78
e 77 79
e 77 85
e 77 92
e 77 93
e 77 94
e 77 100
e 78 82
e 78 83
e 78 84
e 78 85
e 78 90
e 78 95
e 78 99
e 79 80
e 79 81
e 79 82
e 79 86
e 79 87
e 79 88
e 79 90
e 79 94
e 79 98
e 80 82
e 80 92
e 80 95
e 81 84
e 81 86
e 81 88
e 81 89
e 81 98
e 81 99
e 82 83
e 82 86
e 82 95
e 82 96
e 82 98
e 83 84
e 83 86
e 83 92
e 83 93
e 83 96
e 83 98
e 83 100
e 84 87
e 84 88
e 84 89
e 84 91
e 84 93
e 84 94
e 84 95
e 84 96
e 85 88
e 85 92
e 85 95
e 85 99
e 86 92
e 86 94
e 86 97
e 86 98
e 86 99
e 86 100
e 87 88
e 87 92
e 87 93
e 87 94
e 87 98
e 88 95
e 88 96
e 88 99
e 89 90
e 89 91
e 89 94
e 89 95
e 89 97
e 90 93
e 91 92
e 91 96
e 91 97
e 92 93
e 92 95
e 92 96
e 92 99
e 92 100
e 93 100
e 94 95
e 94 98
e 96 99
e 96 100
e 97 98
e 99 100
