MATILDA_Graphs/g0092.sol
SET_INDEX
20244
31766
46600
55687
58816
61611
72350
77727
93868
96769
113299
EOF
